71
0 10 2 49 37 50 53 5 59 4 
47 3 67 21 68 38 52 40 61 22 
55 30 69 28 9 45 39 58 35 1 
42 63 32 36 24 51 48 33 46 65 
29 41 44 66 7 27 34 8 70 43 
20 13 14 56 19 12 60 11 16 26 
17 57 15 62 25 31 6 18 54 23 
64 
